p cnf 20 11
e 1 0
a 2 3 0
e 4 5 6 7 0
a 8 0
e 9 0
a 10 0
e 11 0
a 12 13 0
e 14 0
a 15 0
e 16 0
a 17 18 19 0
e 20 0
-11 -10 -4 -3 0
-10 -3 5 16 -8 0
-12 -5 -4 0
-1 -19 -4 -11 0
3 1 -10 0
4 -19 15 10 18 0
5 -20 4 -2 16 0
15 9 -6 16 0
-7 -16 0
4 -2 16 0
16 10 -4 0
